NAME : r201.666200.tour
COMMENT : Cost = 0_666200
COMMENT : Found by LKH [Keld Helsgaun] Thu Sep 14 11:17:37 2017
TYPE : TOUR
DIMENSION : 103
TOUR_SECTION
1
27
13
81
69
78
4
80
34
82
10
52
21
67
66
72
36
35
79
30
25
55
5
56
26
40
68
24
57
76
42
23
75
73
74
22
41
59
54
103
14
95
96
98
88
3
58
16
44
43
15
45
39
87
17
62
86
92
101
99
38
93
60
94
100
97
7
90
102
29
77
51
2
70
32
89
8
83
49
20
12
63
11
71
31
33
91
64
65
50
37
48
47
9
46
18
85
6
61
84
19
53
28
-1
EOF
